
  12    4
  10   10   10   10

   0   0   0   0   0   2 2 3 
  10  10  10  10  10   2 5 4 
   8  10  10  10  10   2 6 5 
   2  10  10  10  10   3 11 8 6 
   8  10  10  10  10   3 11 10 8 
   9  10  10  10  10   1 7 
   8  10  10  10  10   2 10 9 
   3  10  10  10  10   1 9 
  10  10  10  10  10   1 12
   4  10  10  10  10   1 12
  10  10  10  10  10   1 12
   0   0   0   0   0   0 
